figure1/gurobi.log

Gurobi 8.1.1 (mac64, Python) logging started Fri Jan 29 21:18:14 2021

Academic license - for non-commercial use only

Gurobi 8.1.1 (mac64, Python) logging started Fri Jan 29 21:27:23 2021

Academic license - for non-commercial use only

Gurobi 8.1.1 (mac64, Python) logging started Fri Jan 29 21:35:23 2021

Academic license - for non-commercial use only
